NAME : rbv1583
COMMENT : Bonn VLSI data set with 1583 points
COMMENT : Uni Bonn, Research Institute for Discrete Math
COMMENT : Contributed by Andre Rohe
TYPE : TSP
DIMENSION : 1583
EDGE_WEIGHT_TYPE : EUC_2D
NODE_COORD_SECTION
1 2 105
2 2 108
3 2 119
4 2 12
5 2 121
6 2 133
7 2 136
8 2 14
9 2 147
10 2 150
11 2 152
12 2 153
13 2 155
14 2 156
15 2 158
16 2 159
17 2 161
18 2 162
19 2 163
20 2 165
21 2 167
22 2 168
23 2 17
24 2 170
25 2 171
26 2 173
27 2 174
28 2 176
29 2 178
30 2 194
31 2 28
32 2 30
33 2 42
34 2 45
35 2 56
36 2 58
37 2 70
38 2 73
39 2 84
40 2 86
41 2 92
42 2 93
43 5 152
44 5 155
45 5 158
46 5 167
47 5 170
48 5 173
49 5 176
50 5 7
51 9 150
52 9 153
53 9 156
54 9 161
55 9 165
56 9 168
57 9 171
58 9 174
59 10 150
60 10 153
61 10 156
62 10 165
63 10 168
64 10 171
65 10 174
66 11 150
67 11 153
68 11 156
69 11 160
70 11 165
71 11 168
72 11 171
73 11 174
74 11 184
75 11 5
76 11 8
77 15 163
78 17 178
79 17 86
80 18 105
81 18 108
82 18 119
83 18 121
84 18 133
85 18 136
86 18 147
87 18 17
88 18 194
89 18 28
90 18 30
91 18 42
92 18 45
93 18 56
94 18 58
95 18 70
96 18 73
97 18 84
98 18 92
99 18 93
100 25 105
101 25 108
102 25 119
103 25 121
104 25 133
105 25 136
106 25 147
107 25 150
108 25 152
109 25 153
110 25 155
111 25 156
112 25 158
113 25 159
114 25 161
115 25 162
116 25 163
117 25 165
118 25 167
119 25 168
120 25 17
121 25 170
122 25 171
123 25 172
124 25 180
125 25 196
126 25 28
127 25 30
128 25 42
129 25 45
130 25 56
131 25 58
132 25 70
133 25 73
134 25 84
135 25 86
136 25 92
137 25 93
138 28 12
139 28 14
140 28 152
141 28 155
142 28 158
143 28 167
144 28 175
145 28 177
146 28 7
147 28 9
148 32 150
149 32 153
150 32 156
151 32 161
152 32 165
153 32 170
154 33 150
155 33 153
156 33 156
157 33 165
158 34 11
159 34 150
160 34 153
161 34 156
162 34 160
163 34 165
164 34 169
165 34 174
166 34 186
167 34 5
168 34 8
169 38 12
170 38 14
171 38 163
172 38 172
173 38 175
174 38 177
175 38 9
176 40 180
177 40 86
178 41 105
179 41 108
180 41 119
181 41 121
182 41 133
183 41 136
184 41 147
185 41 17
186 41 196
187 41 28
188 41 30
189 41 42
190 41 45
191 41 56
192 41 58
193 41 70
194 41 73
195 41 84
196 41 92
197 41 93
198 48 114
199 48 12
200 48 128
201 48 130
202 48 131
203 48 133
204 48 134
205 48 136
206 48 137
207 48 139
208 48 14
209 48 140
210 48 141
211 48 151
212 48 153
213 48 156
214 48 158
215 48 159
216 48 161
217 48 162
218 48 164
219 48 165
220 48 167
221 48 168
222 48 170
223 48 171
224 48 173
225 48 174
226 48 175
227 48 178
228 48 185
229 48 19
230 48 20
231 48 21
232 48 23
233 48 29
234 48 32
235 48 33
236 48 34
237 48 36
238 48 38
239 48 40
240 48 45
241 48 46
242 48 52
243 48 54
244 48 56
245 48 57
246 48 59
247 48 60
248 48 62
249 48 63
250 48 65
251 48 66
252 48 67
253 48 75
254 48 77
255 48 78
256 48 80
257 48 81
258 48 83
259 48 84
260 48 86
261 48 87
262 48 88
263 48 91
264 48 92
265 48 98
266 51 119
267 51 122
268 51 126
269 51 130
270 51 133
271 51 136
272 51 146
273 51 158
274 51 161
275 51 164
276 51 167
277 51 17
278 51 170
279 51 190
280 51 193
281 51 197
282 51 24
283 51 26
284 51 37
285 51 40
286 51 43
287 51 49
288 51 56
289 51 59
290 51 62
291 51 7
292 51 72
293 51 77
294 51 80
295 51 83
296 51 95
297 55 128
298 55 131
299 55 134
300 55 139
301 55 156
302 55 159
303 55 162
304 55 165
305 55 168
306 55 173
307 55 38
308 55 54
309 55 57
310 55 60
311 55 65
312 55 75
313 55 78
314 55 81
315 55 86
316 56 128
317 56 131
318 56 134
319 56 156
320 56 159
321 56 162
322 56 165
323 56 168
324 56 23
325 56 36
326 56 38
327 56 54
328 56 57
329 56 60
330 56 75
331 56 78
332 56 81
333 57 104
334 57 117
335 57 120
336 57 128
337 57 131
338 57 134
339 57 138
340 57 147
341 57 156
342 57 159
343 57 16
344 57 162
345 57 165
346 57 168
347 57 172
348 57 188
349 57 191
350 57 23
351 57 25
352 57 36
353 57 38
354 57 41
355 57 48
356 57 5
357 57 54
358 57 57
359 57 60
360 57 64
361 57 75
362 57 78
363 57 8
364 57 81
365 57 85
366 57 94
367 58 143
368 58 69
369 61 141
370 61 146
371 61 17
372 61 175
373 61 24
374 61 26
375 61 37
376 61 49
377 61 67
378 61 72
379 61 88
380 61 95
381 63 178
382 63 20
383 63 21
384 63 29
385 63 33
386 63 34
387 63 45
388 63 52
389 63 91
390 63 98
391 64 114
392 64 185
393 71 105
394 71 107
395 71 108
396 71 110
397 71 111
398 71 113
399 71 114
400 71 115
401 71 117
402 71 119
403 71 124
404 71 126
405 71 130
406 71 132
407 71 133
408 71 135
409 71 14
410 71 147
411 71 148
412 71 150
413 71 152
414 71 156
415 71 158
416 71 159
417 71 16
418 71 161
419 71 162
420 71 164
421 71 165
422 71 167
423 71 168
424 71 170
425 71 171
426 71 172
427 71 18
428 71 180
429 71 196
430 71 25
431 71 27
432 71 39
433 71 40
434 71 45
435 71 46
436 71 53
437 71 76
438 71 83
439 71 86
440 71 88
441 71 89
442 71 91
443 71 92
444 71 94
445 71 95
446 71 97
447 71 98
448 71 99
449 74 102
450 74 107
451 74 11
452 74 110
453 74 119
454 74 132
455 74 135
456 74 139
457 74 143
458 74 15
459 74 152
460 74 155
461 74 158
462 74 161
463 74 164
464 74 167
465 74 175
466 74 177
467 74 18
468 74 22
469 74 27
470 74 30
471 74 33
472 74 37
473 74 50
474 74 6
475 74 71
476 74 73
477 74 88
478 74 9
479 74 91
480 74 94
481 78 105
482 78 108
483 78 113
484 78 117
485 78 130
486 78 133
487 78 136
488 78 139
489 78 143
490 78 150
491 78 156
492 78 159
493 78 16
494 78 162
495 78 165
496 78 170
497 78 25
498 78 86
499 78 89
500 78 92
501 78 97
502 79 105
503 79 108
504 79 117
505 79 130
506 79 133
507 79 137
508 79 14
509 79 141
510 79 150
511 79 156
512 79 159
513 79 16
514 79 162
515 79 165
516 79 25
517 79 51
518 79 86
519 79 89
520 79 92
521 80 101
522 80 105
523 80 108
524 80 112
525 80 117
526 80 120
527 80 130
528 80 133
529 80 14
530 80 150
531 80 153
532 80 156
533 80 159
534 80 16
535 80 162
536 80 165
537 80 169
538 80 174
539 80 186
540 80 25
541 80 28
542 80 31
543 80 48
544 80 5
545 80 51
546 80 70
547 80 8
548 80 86
549 80 89
550 80 92
551 80 96
552 81 19
553 84 102
554 84 11
555 84 115
556 84 138
557 84 142
558 84 15
559 84 172
560 84 175
561 84 177
562 84 22
563 84 6
564 84 71
565 84 73
566 84 9
567 84 99
568 86 148
569 86 180
570 86 39
571 86 45
572 86 76
573 87 196
574 87 83
575 94 103
576 94 105
577 94 111
578 94 113
579 94 114
580 94 115
581 94 117
582 94 119
583 94 12
584 94 120
585 94 122
586 94 123
587 94 125
588 94 13
589 94 130
590 94 132
591 94 133
592 94 135
593 94 136
594 94 137
595 94 14
596 94 143
597 94 150
598 94 153
599 94 155
600 94 157
601 94 159
602 94 161
603 94 163
604 94 164
605 94 165
606 94 167
607 94 169
608 94 170
609 94 171
610 94 18
611 94 193
612 94 195
613 94 27
614 94 50
615 94 66
616 94 80
617 94 82
618 94 83
619 94 85
620 94 86
621 94 88
622 94 89
623 94 91
624 94 92
625 94 93
626 97 10
627 97 108
628 97 119
629 97 122
630 97 125
631 97 128
632 97 132
633 97 140
634 97 154
635 97 156
636 97 158
637 97 160
638 97 175
639 97 179
640 97 183
641 97 187
642 97 19
643 97 23
644 97 45
645 97 47
646 97 71
647 97 74
648 97 78
649 97 8
650 97 82
651 97 85
652 97 88
653 97 98
654 101 113
655 101 117
656 101 120
657 101 123
658 101 130
659 101 135
660 101 163
661 101 169
662 101 180
663 101 183
664 101 187
665 101 80
666 101 83
667 101 86
668 101 91
669 102 117
670 102 120
671 102 123
672 102 130
673 102 153
674 102 155
675 102 157
676 102 159
677 102 18
678 102 181
679 102 185
680 102 25
681 102 80
682 102 83
683 102 86
684 103 107
685 103 112
686 103 117
687 103 120
688 103 123
689 103 126
690 103 130
691 103 134
692 103 139
693 103 153
694 103 155
695 103 157
696 103 159
697 103 162
698 103 168
699 103 173
700 103 18
701 103 189
702 103 25
703 103 44
704 103 56
705 103 69
706 103 72
707 103 80
708 103 83
709 103 86
710 103 9
711 103 90
712 103 99
713 104 176
714 104 20
715 104 5
716 104 95
717 107 10
718 107 108
719 107 115
720 107 137
721 107 140
722 107 154
723 107 156
724 107 158
725 107 160
726 107 165
727 107 171
728 107 179
729 107 182
730 107 186
731 107 19
732 107 23
733 107 45
734 107 47
735 107 8
736 107 93
737 107 98
738 109 13
739 109 14
740 109 143
741 109 50
742 110 150
743 110 66
744 117 10
745 117 102
746 117 105
747 117 116
748 117 118
749 117 130
750 117 133
751 117 14
752 117 144
753 117 147
754 117 149
755 117 150
756 117 152
757 117 153
758 117 155
759 117 156
760 117 157
761 117 159
762 117 161
763 117 162
764 117 164
765 117 165
766 117 167
767 117 168
768 117 170
769 117 188
770 117 25
771 117 27
772 117 39
773 117 42
774 117 53
775 117 55
776 117 67
777 117 70
778 117 81
779 117 83
780 117 89
781 117 90
782 120 0
783 120 149
784 120 152
785 120 161
786 120 164
787 120 167
788 120 169
789 120 171
790 120 174
791 120 178
792 120 180
793 120 183
794 120 185
795 121 0
796 122 0
797 123 0
798 124 147
799 124 150
800 124 155
801 124 159
802 124 162
803 124 165
804 125 147
805 125 150
806 125 159
807 125 162
808 125 165
809 125 168
810 125 170
811 126 147
812 126 150
813 126 154
814 126 159
815 126 162
816 126 165
817 126 168
818 126 170
819 126 172
820 126 179
821 126 182
822 126 194
823 127 175
824 130 157
825 130 169
826 130 171
827 130 178
828 130 180
829 130 183
830 130 185
831 132 188
832 132 83
833 133 10
834 133 102
835 133 105
836 133 116
837 133 118
838 133 130
839 133 133
840 133 14
841 133 144
842 133 25
843 133 27
844 133 39
845 133 42
846 133 53
847 133 55
848 133 67
849 133 70
850 133 81
851 133 89
852 133 90
853 140 10
854 140 105
855 140 108
856 140 11
857 140 119
858 140 121
859 140 133
860 140 136
861 140 147
862 140 150
863 140 152
864 140 153
865 140 155
866 140 156
867 140 158
868 140 159
869 140 160
870 140 162
871 140 164
872 140 165
873 140 167
874 140 168
875 140 17
876 140 170
877 140 195
878 140 197
879 140 28
880 140 30
881 140 42
882 140 45
883 140 56
884 140 58
885 140 6
886 140 70
887 140 73
888 140 84
889 140 86
890 140 92
891 140 93
892 143 14
893 143 152
894 143 155
895 143 164
896 143 167
897 143 170
898 143 174
899 143 179
900 143 185
901 143 189
902 146 171
903 147 150
904 147 153
905 147 158
906 147 162
907 147 165
908 147 168
909 147 182
910 147 185
911 147 189
912 148 150
913 148 153
914 148 162
915 148 165
916 148 168
917 148 183
918 148 187
919 149 13
920 149 150
921 149 153
922 149 157
923 149 162
924 149 165
925 149 168
926 149 191
927 153 14
928 153 160
929 153 174
930 153 179
931 153 184
932 153 188
933 155 11
934 155 6
935 155 86
936 156 105
937 156 108
938 156 119
939 156 121
940 156 133
941 156 136
942 156 147
943 156 17
944 156 28
945 156 30
946 156 42
947 156 45
948 156 56
949 156 58
950 156 70
951 156 73
952 156 84
953 156 92
954 156 93
955 160 0
956 163 102
957 163 107
958 163 110
959 163 114
960 163 116
961 163 117
962 163 118
963 163 127
964 163 129
965 163 131
966 163 132
967 163 134
968 163 135
969 163 137
970 163 138
971 163 140
972 163 141
973 163 143
974 163 144
975 163 146
976 163 147
977 163 148
978 163 15
979 163 150
980 163 152
981 163 153
982 163 155
983 163 156
984 163 158
985 163 16
986 163 17
987 163 19
988 163 190
989 163 192
990 163 20
991 163 21
992 163 25
993 163 34
994 163 36
995 163 38
996 163 39
997 163 40
998 163 42
999 163 43
1000 163 44
1001 163 48
1002 163 50
1003 163 57
1004 163 59
1005 163 60
1006 163 61
1007 163 63
1008 163 65
1009 163 66
1010 163 68
1011 163 69
1012 163 71
1013 163 76
1014 163 79
1015 163 84
1016 163 86
1017 163 87
1018 163 89
1019 163 90
1020 163 92
1021 163 94
1022 163 96
1023 166 108
1024 166 121
1025 166 123
1026 166 128
1027 166 131
1028 166 134
1029 166 137
1030 166 14
1031 166 140
1032 166 143
1033 166 152
1034 166 155
1035 166 158
1036 166 161
1037 166 165
1038 166 169
1039 166 174
1040 166 180
1041 166 184
1042 166 195
1043 166 26
1044 166 29
1045 166 50
1046 166 54
1047 166 65
1048 166 68
1049 166 71
1050 166 74
1051 166 77
1052 166 8
1053 166 80
1054 166 83
1055 166 86
1056 166 89
1057 166 91
1058 166 93
1059 166 96
1060 169 166
1061 170 116
1062 170 129
1063 170 132
1064 170 135
1065 170 138
1066 170 141
1067 170 146
1068 170 150
1069 170 153
1070 170 156
1071 170 177
1072 170 180
1073 170 184
1074 170 48
1075 170 59
1076 170 63
1077 170 66
1078 170 69
1079 170 84
1080 170 87
1081 170 94
1082 171 107
1083 171 127
1084 171 129
1085 171 132
1086 171 135
1087 171 138
1088 171 141
1089 171 150
1090 171 153
1091 171 156
1092 171 178
1093 171 182
1094 171 25
1095 171 48
1096 171 63
1097 171 66
1098 171 69
1099 171 76
1100 171 79
1101 171 84
1102 171 87
1103 171 90
1104 171 92
1105 171 94
1106 172 107
1107 172 115
1108 172 120
1109 172 127
1110 172 129
1111 172 132
1112 172 135
1113 172 138
1114 172 141
1115 172 145
1116 172 150
1117 172 153
1118 172 156
1119 172 159
1120 172 186
1121 172 194
1122 172 25
1123 172 27
1124 172 30
1125 172 48
1126 172 58
1127 172 63
1128 172 66
1129 172 69
1130 172 72
1131 172 76
1132 172 79
1133 172 81
1134 172 84
1135 172 87
1136 172 90
1137 172 92
1138 172 94
1139 173 162
1140 173 5
1141 173 51
1142 176 108
1143 176 118
1144 176 121
1145 176 123
1146 176 128
1147 176 14
1148 176 148
1149 176 165
1150 176 169
1151 176 174
1152 176 179
1153 176 183
1154 176 195
1155 176 26
1156 176 54
1157 176 61
1158 176 77
1159 176 8
1160 176 80
1161 176 91
1162 176 93
1163 178 110
1164 178 16
1165 178 17
1166 178 20
1167 178 21
1168 178 39
1169 178 40
1170 178 43
1171 178 44
1172 179 102
1173 186 100
1174 186 101
1175 186 103
1176 186 104
1177 186 106
1178 186 107
1179 186 109
1180 186 110
1181 186 112
1182 186 113
1183 186 115
1184 186 117
1185 186 12
1186 186 124
1187 186 127
1188 186 129
1189 186 133
1190 186 135
1191 186 136
1192 186 138
1193 186 139
1194 186 141
1195 186 142
1196 186 143
1197 186 145
1198 186 147
1199 186 148
1200 186 150
1201 186 151
1202 186 153
1203 186 154
1204 186 156
1205 186 157
1206 186 159
1207 186 160
1208 186 162
1209 186 194
1210 186 196
1211 186 32
1212 186 34
1213 186 35
1214 186 36
1215 186 38
1216 186 48
1217 186 50
1218 186 54
1219 186 56
1220 186 57
1221 186 59
1222 186 6
1223 186 61
1224 186 66
1225 186 68
1226 186 69
1227 186 71
1228 186 83
1229 186 85
1230 186 86
1231 186 87
1232 186 89
1233 186 91
1234 186 92
1235 186 94
1236 186 95
1237 186 97
1238 186 98
1239 189 100
1240 189 103
1241 189 106
1242 189 109
1243 189 112
1244 189 115
1245 189 129
1246 189 131
1247 189 135
1248 189 138
1249 189 147
1250 189 150
1251 189 153
1252 189 156
1253 189 159
1254 189 162
1255 189 165
1256 189 169
1257 189 173
1258 189 178
1259 189 184
1260 189 188
1261 189 30
1262 189 39
1263 189 43
1264 189 56
1265 189 59
1266 189 65
1267 189 68
1268 189 71
1269 189 74
1270 189 76
1271 189 79
1272 189 81
1273 189 91
1274 189 94
1275 189 97
1276 192 170
1277 193 101
1278 193 104
1279 193 107
1280 193 110
1281 193 113
1282 193 127
1283 193 133
1284 193 136
1285 193 141
1286 193 145
1287 193 148
1288 193 151
1289 193 154
1290 193 157
1291 193 160
1292 193 181
1293 193 184
1294 193 188
1295 193 34
1296 193 54
1297 193 57
1298 193 66
1299 193 69
1300 193 85
1301 193 89
1302 193 92
1303 193 95
1304 193 98
1305 194 10
1306 194 101
1307 194 104
1308 194 107
1309 194 110
1310 194 113
1311 194 127
1312 194 133
1313 194 136
1314 194 145
1315 194 148
1316 194 151
1317 194 154
1318 194 157
1319 194 160
1320 194 182
1321 194 186
1322 194 38
1323 194 54
1324 194 57
1325 194 66
1326 194 69
1327 194 89
1328 194 92
1329 194 95
1330 194 98
1331 195 10
1332 195 101
1333 195 104
1334 195 107
1335 195 110
1336 195 113
1337 195 127
1338 195 130
1339 195 133
1340 195 136
1341 195 140
1342 195 145
1343 195 148
1344 195 151
1345 195 154
1346 195 157
1347 195 160
1348 195 163
1349 195 190
1350 195 29
1351 195 33
1352 195 38
1353 195 44
1354 195 54
1355 195 57
1356 195 63
1357 195 66
1358 195 69
1359 195 72
1360 195 75
1361 195 78
1362 195 84
1363 195 89
1364 195 92
1365 195 95
1366 195 98
1367 196 166
1368 196 40
1369 199 131
1370 199 143
1371 199 169
1372 199 173
1373 199 178
1374 199 183
1375 199 187
1376 199 30
1377 199 36
1378 199 39
1379 199 43
1380 199 76
1381 199 79
1382 199 81
1383 199 87
1384 201 117
1385 201 6
1386 201 61
1387 202 124
1388 209 102
1389 209 104
1390 209 105
1391 209 106
1392 209 108
1393 209 11
1394 209 110
1395 209 111
1396 209 112
1397 209 115
1398 209 122
1399 209 130
1400 209 132
1401 209 133
1402 209 134
1403 209 136
1404 209 138
1405 209 139
1406 209 141
1407 209 142
1408 209 143
1409 209 145
1410 209 147
1411 209 148
1412 209 150
1413 209 151
1414 209 153
1415 209 154
1416 209 155
1417 209 185
1418 209 187
1419 209 27
1420 209 32
1421 209 34
1422 209 35
1423 209 36
1424 209 38
1425 209 40
1426 209 41
1427 209 42
1428 209 54
1429 209 56
1430 209 57
1431 209 58
1432 209 60
1433 209 62
1434 209 67
1435 209 69
1436 209 71
1437 209 80
1438 209 82
1439 209 86
1440 209 88
1441 209 89
1442 209 91
1443 209 92
1444 209 93
1445 212 101
1446 212 127
1447 212 138
1448 212 147
1449 212 150
1450 212 160
1451 212 164
1452 212 169
1453 212 175
1454 212 179
1455 212 190
1456 212 193
1457 212 195
1458 212 46
1459 212 50
1460 212 52
1461 212 6
1462 212 62
1463 212 64
1464 212 71
1465 212 75
1466 212 8
1467 212 88
1468 212 97
1469 215 161
1470 216 104
1471 216 110
1472 216 132
1473 216 136
1474 216 141
1475 216 145
1476 216 148
1477 216 153
1478 216 172
1479 216 175
1480 216 179
1481 216 34
1482 216 40
1483 216 56
1484 216 60
1485 216 69
1486 216 86
1487 216 91
1488 217 136
1489 217 145
1490 217 148
1491 217 173
1492 217 177
1493 217 60
1494 217 69
1495 217 86
1496 218 103
1497 218 109
1498 218 125
1499 218 131
1500 218 136
1501 218 140
1502 218 145
1503 218 148
1504 218 152
1505 218 17
1506 218 181
1507 218 189
1508 218 192
1509 218 33
1510 218 39
1511 218 44
1512 218 5
1513 218 51
1514 218 55
1515 218 60
1516 218 63
1517 218 69
1518 218 76
1519 218 86
1520 218 90
1521 218 95
1522 219 157
1523 219 47
1524 219 72
1525 222 106
1526 222 112
1527 222 134
1528 222 143
1529 222 155
1530 222 160
1531 222 164
1532 222 169
1533 222 174
1534 222 178
1535 222 190
1536 222 193
1537 222 195
1538 222 36
1539 222 42
1540 222 50
1541 222 52
1542 222 58
1543 222 6
1544 222 64
1545 222 75
1546 222 8
1547 222 93
1548 224 11
1549 224 115
1550 224 67
1551 225 122
1552 225 27
1553 243 102
1554 243 105
1555 243 110
1556 243 113
1557 243 118
1558 243 121
1559 243 126
1560 243 129
1561 243 137
1562 243 142
1563 243 145
1564 243 150
1565 243 153
1566 243 161
1567 243 169
1568 243 17
1569 243 177
1570 243 185
1571 243 193
1572 243 201
1573 243 25
1574 243 33
1575 243 41
1576 243 49
1577 243 57
1578 243 65
1579 243 73
1580 243 81
1581 243 89
1582 243 9
1583 243 97
EOF
